%%% static parameters %%%
timespan = 1;
Clients_N = [4000];
Demand_W = [15];
Lt0 = [4];
Lt1 = [4];
SS_ = [0.85];
DS_D = [20];
K = [200];
MA = [500];
HC = [0.05];
%%% dynamic parameters %%%
lost_ratio_sales_ret_th = 1.1905915672618894e-05;
lost_ratio_sales_ret_w = 2;
lost_ratio_sales_dis_th = 0.00019384520824238205;
lost_ratio_sales_dis_w = 9;
lost_ratio_sales_fac_th = 0.0009788523783163974;
lost_ratio_sales_fac_w = 22;
stock_customer_MA_mean_relative_th = 0.37123975227195816;
stock_customer_MA_mean_relative_w = 91;
stock_distributor_MA_mean_relative_th = 0.8431484794630748;
stock_distributor_MA_mean_relative_w = 95;
stock_retailer_MA_mean_relative_th = 0.5105689199950909;
stock_retailer_MA_mean_relative_w = 68;
stock_factory_MA_mean_relative_th = 0.8367801201738916;
stock_factory_MA_mean_relative_w = 40;
